798  0 1 1 1 0 1 1 1 0 1
942  1 1 1 0 1 1 1 1 0 1
740  0 1 1 1 0 0 1 1 1 1
956  1 1 1 1 1 0 1 0 1 0
1501  1 1 1 1 1 0 1 1 1 0
1351  1 0 1 1 1 1 1 1 1 1
1375  1 1 1 1 0 1 1 1 1 1
1153  0 1 1 1 0 1 1 1 1 1
1234  1 0 1 0 1 1 1 1 1 0
1260  1 0 1 1 1 0 0 1 1 1
1319  1 1 1 0 1 1 0 0 1 1
1169  1 1 1 1 1 1 0 1 1 1
99  0 0 0 0 0 0 0 0 0 1
1023  0 1 1 1 1 1 1 1 0 0
1389  1 1 1 1 0 0 1 1 1 1
1168  0 1 0 1 0 1 1 0 0 1
1024  1 1 0 1 0 1 1 1 1 1
1195  1 1 1 1 0 0 1 0 1 1
872  1 1 1 1 1 1 0 1 0 0
1099  1 1 1 0 1 0 1 1 1 0
1286  0 0 1 1 1 1 1 1 1 1
1178  0 1 1 1 1 1 1 0 0 1
1217  1 1 0 1 0 1 0 1 1 1
939  1 0 0 1 1 1 1 0 1 1
784  1 1 1 1 0 0 0 1 1 0
1240  1 1 1 1 0 0 1 1 1 1
917  1 0 1 1 1 1 0 1 0 0
1033  1 1 0 1 1 1 1 0 1 0
1386  1 1 1 1 1 1 0 1 1 1
1266  0 1 1 1 1 1 1 1 0 1
1054  1 1 1 0 0 0 1 1 1 0
980  1 1 0 0 1 1 0 1 0 0
952  1 1 0 0 0 0 1 1 1 1
1446  1 0 1 1 1 1 1 1 1 1
1196  1 0 0 1 1 1 1 1 1 1
1062  1 1 0 1 1 0 1 0 1 1
748  1 1 1 1 1 0 0 0 1 0
1059  1 0 1 1 1 0 1 1 0 0
1578  1 1 1 1 1 1 1 1 1 1
694  1 0 1 1 1 0 1 0 1 1
1143  1 1 1 1 1 1 1 1 1 0
1043  1 1 0 1 1 1 1 1 1 1
1436  1 1 1 1 1 0 1 1 1 1
1368  0 1 1 1 1 1 1 1 1 1
1315  0 1 1 1 1 1 0 1 0 1
1005  1 1 1 1 0 0 1 1 0 1
1187  1 1 1 1 1 0 1 1 0 1
959  1 1 1 1 1 1 1 1 1 0
925  0 1 1 1 0 0 1 1 1 0
1243  1 1 1 1 1 1 1 0 0 1